c Sudoku solution
p cnf 729 0
115 0
126 0
138 0
227 0
248 0
289 0
322 0
357 0
371 0
516 0
551 0
578 0
592 0
614 0
628 0
643 0
662 0
737 0
417 0
432 0
764 0
793 0
877 0
899 0
913 0
211 0
319 0
931 0
836 0
421 0
523 0
691 0
687 0
197 0
949 0
967 0
729 0
547 0
584 0
824 0
925 0
495 0
718 0
812 0
385 0
398 0
775 0
845 0
366 0
344 0
174 0
296 0
234 0
333 0
446 0
454 0
468 0
483 0
479 0
676 0
273 0
182 0
141 0
252 0
265 0
742 0
861 0
756 0
853 0
958 0
781 0
888 0
159 0
163 0
655 0
569 0
535 0
639 0
972 0
986 0
994 0
